
<<< setup


<<< generate

 ! --------------------------------------------------- CP Optimizer 22.1.1.0 --
 ! Satisfiability problem - 80 variables, 696 constraints
 ! Presolve      : 201 extractables eliminated, 67 constraints generated
 ! ParallelMode         = 1
 ! Workers              = 8
 ! Initial process time : 0.03s (0.03s extraction + 0.00s propagation)
 !  . Log search space  : 160.0 (before), 160.0 (after)
 !  . Memory usage      : 861.1 kB (before), 861.1 kB (after)
 ! Using parallel search with 8 workers.
 ! ----------------------------------------------------------------------------
 !               Branches  Non-fixed    W       Branch decision
                     1000         19    1         2 != x(1)(20)
                     1000         22    7   F     1  = x(1)(38)
                     1000         26    8            -
                     1000         16    2         1  = x(1)(9)
                     1000         16    4   F     1  = x(1)(23)
                     1000         13    6   F     3 != x(1)(36)
                     1000         24    3   F     1  = x(1)(43)
                     1000         19    5   F     1  = x(1)(53)
 *                   1179  0.07s        7         0  = x(1)(78)
 ! ----------------------------------------------------------------------------
 ! Search completed, 1 solution found.
 ! ----------------------------------------------------------------------------
 ! Number of branches     : 14011
 ! Number of fails        : 6197
 ! Total memory usage     : 16.0 MB (15.6 MB CP Optimizer + 0.5 MB Concert)
 ! Time spent in solve    : 0.08s (0.05s engine + 0.03s extraction)
 ! Search speed (br. / s) : 280220.0
 ! ----------------------------------------------------------------------------

<<< solve



OBJECTIVE: no objective

<<< post process


<<< done

